JulietBench/Juliet_Based_Patch_Bench/linux/CWE-189-Numeric-Errors/CVE_2011_1013_1922756124ddd53846877416d92ba4a802bc658f/solverdrm_modeset_ctl_Snippet_patch1.smt2
; benchmark generated from python API
(set-info :status unknown)
(declare-fun R () (_ BitVec 32))
(declare-fun rsi () (_ BitVec 64))
(declare-fun rdi () (_ BitVec 64))
(assert
 (let (($x46 (= (_ bv4294967295 32) R)))
 (let ((?x8 ((_ extract 31 0) rsi)))
 (let (($x12 (= (_ bv0 32) ?x8)))
 (let (($x41 (and $x12 $x46)))
 (let (($x349 (= (_ bv0 32) R)))
 (let (($x38 (and (distinct (_ bv0 32) ?x8) true)))
 (let ((?x6 ((_ extract 31 0) rdi)))
 (let (($x350 (bvult ?x6 ?x8)))
 (let (($x353 (and $x350 $x38 $x349)))
 (let (($x42 (= (_ bv4294967274 32) R)))
 (let (($x351 (bvuge ?x6 ?x8)))
 (let (($x352 (and $x351 $x38 $x42)))
 (let (($x354 (or $x352 $x353 $x41)))
 (let (($x357 (not $x354)))
 (let (($x344 (bvugt ?x8 ?x6)))
 (let (($x346 (and $x344 $x38 $x349)))
 (let (($x50 (bvule ?x8 ?x6)))
 (let (($x39 (and $x50 $x38 $x42)))
 (let (($x44 (or $x39 $x346 $x41)))
 (let (($x356 (not $x44)))
 (let (($x358 (and $x356 $x357)))
 (let (($x355 (and $x44 $x354)))
 (let (($x359 (or $x355 $x358)))
 (not $x359)))))))))))))))))))))))))
(check-sat)
